NAME 
ROWS
 N  OBJ
 L  R0      
 L  R1      
 E  R2      
COLUMNS
    MARKER    'MARKER'                 'INTORG'
    I0(3)     OBJ       -494
    I0(3)     R0        -332
    I0(3)     R1        -903
    I0(3)     R2        974
    I1(3)     OBJ       -837
    I1(3)     R0        -590
    I1(3)     R1        -18
    I1(3)     R2        269
    I2(3)     OBJ       -959
    I2(3)     R0        -748
    I2(3)     R1        -12
    I2(3)     R2        579
    I3(3)     OBJ       -602
    I3(3)     R0        -291
    I3(3)     R1        -650
    I3(3)     R2        985
    I4(3)     OBJ       -605
    I4(3)     R0        -191
    I4(3)     R1        -309
    I4(3)     R2        919
    I5(3)     OBJ       -227
    I5(3)     R0        -353
    I5(3)     R1        -202
    I5(3)     R2        887
    I6(3)     OBJ       -462
    I6(3)     R0        -517
    I6(3)     R1        -2
    I6(3)     R2        187
    I7(3)     OBJ       -581
    I7(3)     R0        -653
    I7(3)     R1        -826
    I7(3)     R2        921
    I8(3)     OBJ       -964
    I8(3)     R0        -933
    I8(3)     R1        -854
    I8(3)     R2        712
    I9(3)     OBJ       -716
    I9(3)     R0        -481
    I9(3)     R1        -935
    I9(3)     R2        41
    I10(3)    OBJ       -176
    I10(3)    R0        -368
    I10(3)    R1        -306
    I10(3)    R2        855
    I11(3)    OBJ       -113
    I11(3)    R0        -109
    I11(3)    R1        -222
    I11(3)    R2        18
    I12(3)    OBJ       -206
    I12(3)    R0        -593
    I12(3)    R1        -43
    I12(3)    R2        263
    I13(3)    OBJ       -787
    I13(3)    R0        -574
    I13(3)    R1        -898
    I13(3)    R2        898
    I14(3)    OBJ       -955
    I14(3)    R0        -896
    I14(3)    R1        -796
    I14(3)    R2        915
    I15(3)    OBJ       -700
    I15(3)    R0        -548
    I15(3)    R1        -939
    I15(3)    R2        58
    I16(3)    OBJ       -653
    I16(3)    R0        -274
    I16(3)    R1        -446
    I16(3)    R2        836
    I17(3)    OBJ       -529
    I17(3)    R0        -549
    I17(3)    R1        -69
    I17(3)    R2        361
    I18(3)    OBJ       -247
    I18(3)    R0        -76
    I18(3)    R1        -487
    I18(3)    R2        127
    I19(3)    OBJ       -91
    I19(3)    R0        -520
    I19(3)    R1        -522
    I19(3)    R2        323
    I20(3)    OBJ       -479
    I20(3)    R0        -640
    I20(3)    R1        -589
    I20(3)    R2        882
    I21(3)    OBJ       -228
    I21(3)    R0        -555
    I21(3)    R1        -126
    I21(3)    R2        715
    I22(3)    OBJ       -462
    I22(3)    R0        -748
    I22(3)    R1        -76
    I22(3)    R2        448
    I23(3)    OBJ       -746
    I23(3)    R0        -101
    I23(3)    R1        -337
    I23(3)    R2        957
    I24(3)    OBJ       -791
    I24(3)    R0        -301
    I24(3)    R1        -227
    I24(3)    R2        51
    I25(3)    OBJ       -225
    I25(3)    R0        -539
    I25(3)    R1        -376
    I25(3)    R2        675
    I26(3)    OBJ       -692
    I26(3)    R0        -326
    I26(3)    R1        -875
    I26(3)    R2        333
    I27(3)    OBJ       -148
    I27(3)    R0        -992
    I27(3)    R1        -553
    I27(3)    R2        926
    I28(3)    OBJ       -97
    I28(3)    R0        -687
    I28(3)    R1        -367
    I28(3)    R2        227
    I29(3)    OBJ       -911
    I29(3)    R0        -422
    I29(3)    R1        -561
    I29(3)    R2        700
    I30(1)    R2        1
    MARKER    'MARKER'                 'INTEND'
RHS
    RHS1      R0        -8384
    RHS1      R1        -8063
    RHS1      R2        8521
BOUNDS
 UP BND1      I0(3)     1
 UP BND1      I1(3)     1
 UP BND1      I2(3)     1
 UP BND1      I3(3)     1
 UP BND1      I4(3)     1
 UP BND1      I5(3)     1
 UP BND1      I6(3)     1
 UP BND1      I7(3)     1
 UP BND1      I8(3)     1
 UP BND1      I9(3)     1
 UP BND1      I10(3)    1
 UP BND1      I11(3)    1
 UP BND1      I12(3)    1
 UP BND1      I13(3)    1
 UP BND1      I14(3)    1
 UP BND1      I15(3)    1
 UP BND1      I16(3)    1
 UP BND1      I17(3)    1
 UP BND1      I18(3)    1
 UP BND1      I19(3)    1
 UP BND1      I20(3)    1
 UP BND1      I21(3)    1
 UP BND1      I22(3)    1
 UP BND1      I23(3)    1
 UP BND1      I24(3)    1
 UP BND1      I25(3)    1
 UP BND1      I26(3)    1
 UP BND1      I27(3)    1
 UP BND1      I28(3)    1
 UP BND1      I29(3)    1
 LI BND1      I30(1)    0
ENDATA
